inputs/inputs_tutto_pieno/input_10_1.lp
edificio( 1 , 1 , 2 ).
edificio( 1 , 2 , 1 ).
edificio( 1 , 3 , 1 ).
edificio( 1 , 4 , 1 ).
edificio( 1 , 5 , 1 ).
edificio( 1 , 6 , 1 ).
edificio( 1 , 7 , 1 ).
edificio( 1 , 8 , 1 ).
edificio( 1 , 9 , 1 ).
edificio( 1 , 10 , 1 ).
edificio( 2 , 1 , 1 ).
edificio( 2 , 2 , 1 ).
edificio( 2 , 3 , 1 ).
edificio( 2 , 4 , 1 ).
edificio( 2 , 5 , 1 ).
edificio( 2 , 6 , 1 ).
edificio( 2 , 7 , 1 ).
edificio( 2 , 8 , 1 ).
edificio( 2 , 9 , 1 ).
edificio( 2 , 10 , 1 ).
edificio( 3 , 1 , 1 ).
edificio( 3 , 2 , 1 ).
edificio( 3 , 3 , 1 ).
edificio( 3 , 4 , 1 ).
edificio( 3 , 5 , 1 ).
edificio( 3 , 6 , 1 ).
edificio( 3 , 7 , 1 ).
edificio( 3 , 8 , 1 ).
edificio( 3 , 9 , 1 ).
edificio( 3 , 10 , 1 ).
edificio( 4 , 1 , 1 ).
edificio( 4 , 2 , 1 ).
edificio( 4 , 3 , 1 ).
edificio( 4 , 4 , 1 ).
edificio( 4 , 5 , 1 ).
edificio( 4 , 6 , 1 ).
edificio( 4 , 7 , 1 ).
edificio( 4 , 8 , 1 ).
edificio( 4 , 9 , 1 ).
edificio( 4 , 10 , 1 ).
edificio( 5 , 1 , 1 ).
edificio( 5 , 2 , 1 ).
edificio( 5 , 3 , 1 ).
edificio( 5 , 4 , 1 ).
edificio( 5 , 5 , 1 ).
edificio( 5 , 6 , 1 ).
edificio( 5 , 7 , 1 ).
edificio( 5 , 8 , 1 ).
edificio( 5 , 9 , 1 ).
edificio( 5 , 10 , 1 ).
edificio( 6 , 1 , 1 ).
edificio( 6 , 2 , 1 ).
edificio( 6 , 3 , 1 ).
edificio( 6 , 4 , 1 ).
edificio( 6 , 5 , 1 ).
edificio( 6 , 6 , 1 ).
edificio( 6 , 7 , 1 ).
edificio( 6 , 8 , 1 ).
edificio( 6 , 9 , 1 ).
edificio( 6 , 10 , 1 ).
edificio( 7 , 1 , 1 ).
edificio( 7 , 2 , 1 ).
edificio( 7 , 3 , 1 ).
edificio( 7 , 4 , 1 ).
edificio( 7 , 5 , 1 ).
edificio( 7 , 6 , 1 ).
edificio( 7 , 7 , 1 ).
edificio( 7 , 8 , 1 ).
edificio( 7 , 9 , 1 ).
edificio( 7 , 10 , 1 ).
edificio( 8 , 1 , 1 ).
edificio( 8 , 2 , 1 ).
edificio( 8 , 3 , 1 ).
edificio( 8 , 4 , 1 ).
edificio( 8 , 5 , 1 ).
edificio( 8 , 6 , 1 ).
edificio( 8 , 7 , 1 ).
edificio( 8 , 8 , 1 ).
edificio( 8 , 9 , 1 ).
edificio( 8 , 10 , 1 ).
edificio( 9 , 1 , 1 ).
edificio( 9 , 2 , 1 ).
edificio( 9 , 3 , 1 ).
edificio( 9 , 4 , 1 ).
edificio( 9 , 5 , 1 ).
edificio( 9 , 6 , 1 ).
edificio( 9 , 7 , 1 ).
edificio( 9 , 8 , 1 ).
edificio( 9 , 9 , 1 ).
edificio( 9 , 10 , 1 ).
edificio( 10 , 1 , 1 ).
edificio( 10 , 2 , 1 ).
edificio( 10 , 3 , 1 ).
edificio( 10 , 4 , 1 ).
edificio( 10 , 5 , 1 ).
edificio( 10 , 6 , 1 ).
edificio( 10 , 7 , 1 ).
edificio( 10 , 8 , 1 ).
edificio( 10 , 9 , 1 ).
edificio( 10 , 10 , 3 ).
